g3 1 1 0 # unnamed problem generated by COEK
 32 11 1 0 11 0 # vars, constraints, objectives, ranges, eqns, lcons
 11 0 # nonlinear constraints, objectives
 0 0 # network constraints: nonlinear, linear
 32 0 0 # nonlinear vars in constraints, objectives, both
 0 0 0 1 # linear network variables; functions; arith, flags
 0 0 0 0 0 # discrete variables: binary, integer, nonlinear (b,c,o)
 62 11 # nonzeros in Jacobian, gradients
 0 0 # max name lengths: constraints, variables
 0 0 0 0 0 # common exprs: b,c,o,c1,o1
C0
o54
3
o5
o0
v0
o2
n-1
n0
n2
o5
o0
v10
o2
n-1
n0
n2
o5
o0
v21
o2
n-1
n0
n2
C1
o54
3
o5
o0
v1
o2
n-1
v0
n2
o5
o0
v11
o2
n-1
v10
n2
o5
o0
v22
o2
n-1
v21
n2
C2
o54
3
o5
o0
v2
o2
n-1
v1
n2
o5
o0
v12
o2
n-1
v11
n2
o5
o0
v23
o2
n-1
v22
n2
C3
o54
3
o5
o0
v3
o2
n-1
v2
n2
o5
o0
v13
o2
n-1
v12
n2
o5
o0
v24
o2
n-1
v23
n2
C4
o54
3
o5
o0
v4
o2
n-1
v3
n2
o5
o0
v14
o2
n-1
v13
n2
o5
o0
v25
o2
n-1
v24
n2
C5
o54
3
o5
o0
v5
o2
n-1
v4
n2
o5
o0
v15
o2
n-1
v14
n2
o5
o0
v26
o2
n-1
v25
n2
C6
o54
3
o5
o0
v6
o2
n-1
v5
n2
o5
o0
v16
o2
n-1
v15
n2
o5
o0
v27
o2
n-1
v26
n2
C7
o54
3
o5
o0
v7
o2
n-1
v6
n2
o5
o0
v17
o2
n-1
v16
n2
o5
o0
v28
o2
n-1
v27
n2
C8
o54
3
o5
o0
v8
o2
n-1
v7
n2
o5
o0
v18
o2
n-1
v17
n2
o5
o0
v29
o2
n-1
v28
n2
C9
o54
3
o5
o0
v9
o2
n-1
v8
n2
o5
o0
v19
o2
n-1
v18
n2
o5
o0
v30
o2
n-1
v29
n2
C10
o54
3
o5
o0
n6.6
o2
n-1
v9
n2
o5
o0
v20
o2
n-1
v19
n2
o5
o0
v31
o2
n-1
v30
n2
O0 0
n0
x32
0 0.6
1 1.2
2 1.8
3 2.4
4 3
5 3.6
6 4.199999999999999
7 4.8
8 5.399999999999999
9 6
10 -0.6
11 -1.2
12 -1.8
13 -2.4
14 -3
15 -3.6
16 -4.199999999999999
17 -4.8
18 -5.399999999999999
19 -6
20 -6.6
21 0
22 0
23 0
24 0
25 0
26 0
27 0
28 0
29 0
30 0
31 0
r
4 1
4 1
4 1
4 1
4 1
4 1
4 1
4 1
4 1
4 1
4 1
b
3
3
3
3
3
3
3
3
3
3
3
3
3
3
3
3
3
3
3
3
3
3
3
3
3
3
3
3
3
3
3
3
k31
2
4
6
8
10
12
14
16
18
20
22
24
26
28
30
32
34
36
38
40
41
43
45
47
49
51
53
55
57
59
61
J0 3
0 0
10 0
21 0
J1 6
0 0
1 0
10 0
11 0
21 0
22 0
J2 6
1 0
2 0
11 0
12 0
22 0
23 0
J3 6
2 0
3 0
12 0
13 0
23 0
24 0
J4 6
3 0
4 0
13 0
14 0
24 0
25 0
J5 6
4 0
5 0
14 0
15 0
25 0
26 0
J6 6
5 0
6 0
15 0
16 0
26 0
27 0
J7 6
6 0
7 0
16 0
17 0
27 0
28 0
J8 6
7 0
8 0
17 0
18 0
28 0
29 0
J9 6
8 0
9 0
18 0
19 0
29 0
30 0
J10 5
9 0
19 0
20 0
30 0
31 0
G0 11
10 445.9090909090909
11 445.9090909090909
12 445.9090909090909
13 445.9090909090909
14 445.9090909090909
15 445.9090909090909
16 445.9090909090909
17 445.9090909090909
18 445.9090909090909
19 445.9090909090909
20 222.9545454545455
